certificates/rado_a10_c184_N25.drat
-20 18 -24 0
18 -24 -25 0
-24 -25 0
d 18 -24 -25 0
24 19 0
d 24 18 19 0
-25 0
19 0
-13 0
-20 0
4 0
9 0
-10 0
24 0
-3 0
-15 0
-18 0
17 0
11 0
14 0
22 0
21 0
7 0
2 0
16 0
6 0
-23 0
0
